NAME : random_2
COMMENT : 43 random nodes
TYPE : TSP
DIMENSION : 43
EDGE_WEIGHT_TYPE : EUC_2D
NODE_COORD_SECTION
1 -6139 1425
2 -5788 -5299
3 1122 6975
4 5052 5028
5 -490 -1455
6 4677 1430
7 -4474 -3618
8 7259 -3258
9 -3782 5897
10 2227 -5159
11 -4406 5595
12 7446 3922
13 -4174 -6165
14 -2447 2597
15 -1280 1843
16 -4887 1799
17 2932 291
18 6571 -1627
19 -3694 -3012
20 -4092 -3790
21 866 5822
22 -71 -3562
23 6880 -3133
24 -3348 5918
25 -1447 740
26 2803 -2620
27 5938 876
28 4503 -1883
29 6375 -2567
30 -2471 -3399
31 -3956 -6082
32 -1184 3893
33 323 3982
34 3535 2810
35 5549 -820
36 6683 5291
37 5069 -1307
38 -3049 6437
39 -5134 4210
40 2187 4778
41 824 -950
42 -3412 4886
43 1443 5310
EOF